p cnf 392 1008
4 9 14 0
-4 -9 0
-4 -14 0
-9 -14 0
37 19 28 0
-37 -19 0
-37 -28 0
-19 -28 0
38 21 30 0
-38 -21 0
-38 -30 0
-21 -30 0
39 23 32 0
-39 -23 0
-39 -32 0
-23 -32 0
-4 -361 -67 0
-4 -361 103 0
-9 -361 -103 0
-9 -361 139 0
-14 -361 -139 0
-14 -361 67 0
-67 -362 -72 0
-67 -362 108 0
-103 -362 -108 0
-103 -362 144 0
-139 -362 -144 0
-139 -362 72 0
-72 -363 -77 0
-72 -363 113 0
-108 -363 -113 0
-108 -363 149 0
-144 -363 -149 0
-144 -363 77 0
-77 -364 -82 0
-77 -364 118 0
-113 -364 -118 0
-113 -364 154 0
-149 -364 -154 0
-149 -364 82 0
-82 -365 -87 0
-82 -365 123 0
-118 -365 -123 0
-118 -365 159 0
-154 -365 -159 0
-154 -365 87 0
-87 -366 -92 0
-87 -366 128 0
-123 -366 -128 0
-123 -366 164 0
-159 -366 -164 0
-159 -366 92 0
-92 -367 -97 0
-92 -367 133 0
-128 -367 -133 0
-128 -367 169 0
-164 -367 -169 0
-164 -367 97 0
-97 -368 -102 0
-97 -368 138 0
-133 -368 -138 0
-133 -368 174 0
-169 -368 -174 0
-169 -368 102 0
-4 -369 -67 0
-4 -369 139 0
-9 -369 -103 0
-9 -369 67 0
-14 -369 -139 0
-14 -369 103 0
-67 -370 -72 0
-67 -370 144 0
-103 -370 -108 0
-103 -370 72 0
-139 -370 -144 0
-139 -370 108 0
-72 -371 -77 0
-72 -371 149 0
-108 -371 -113 0
-108 -371 77 0
-144 -371 -149 0
-144 -371 113 0
-77 -372 -82 0
-77 -372 154 0
-113 -372 -118 0
-113 -372 82 0
-149 -372 -154 0
-149 -372 118 0
-82 -373 -87 0
-82 -373 159 0
-118 -373 -123 0
-118 -373 87 0
-154 -373 -159 0
-154 -373 123 0
-87 -374 -92 0
-87 -374 164 0
-123 -374 -128 0
-123 -374 92 0
-159 -374 -164 0
-159 -374 128 0
-92 -375 -97 0
-92 -375 169 0
-128 -375 -133 0
-128 -375 97 0
-164 -375 -169 0
-164 -375 133 0
-97 -376 -102 0
-97 -376 174 0
-133 -376 -138 0
-133 -376 102 0
-169 -376 -174 0
-169 -376 138 0
-4 -19 -377 244 0
-9 -21 -377 259 0
-14 -23 -377 274 0
-67 -175 -378 246 0
-103 -190 -378 261 0
-139 -205 -378 276 0
-72 -177 -379 248 0
-108 -192 -379 263 0
-144 -207 -379 278 0
-77 -179 -380 250 0
-113 -194 -380 265 0
-149 -209 -380 280 0
-82 -181 -381 252 0
-118 -196 -381 267 0
-154 -211 -381 282 0
-87 -183 -382 254 0
-123 -198 -382 269 0
-159 -213 -382 284 0
-92 -185 -383 256 0
-128 -200 -383 271 0
-164 -215 -383 286 0
-97 -187 -384 258 0
-133 -202 -384 273 0
-169 -217 -384 288 0
-4 -385 175 0
-9 -385 190 0
-14 -385 205 0
-67 -386 177 0
-103 -386 192 0
-139 -386 207 0
-72 -387 179 0
-108 -387 194 0
-144 -387 209 0
-77 -388 181 0
-113 -388 196 0
-149 -388 211 0
-82 -389 183 0
-118 -389 198 0
-154 -389 213 0
-87 -390 185 0
-123 -390 200 0
-159 -390 215 0
-92 -391 187 0
-128 -391 202 0
-164 -391 217 0
-97 -392 189 0
-133 -392 204 0
-169 -392 219 0
-1 43 0
1 -43 0
-43 44 0
43 -44 0
-44 45 0
44 -45 0
-45 46 0
45 -46 0
-46 47 0
46 -47 0
-47 48 0
47 -48 0
-48 49 0
48 -49 0
-49 50 0
49 -50 0
-2 51 0
2 -51 0
-51 52 0
51 -52 0
-52 53 0
52 -53 0
-53 54 0
53 -54 0
-54 55 0
54 -55 0
-55 56 0
55 -56 0
-56 57 0
56 -57 0
-57 58 0
57 -58 0
-3 59 0
3 -59 0
-59 60 0
59 -60 0
-60 61 0
60 -61 0
-61 62 0
61 -62 0
-62 63 0
62 -63 0
-63 64 0
63 -64 0
-64 65 0
64 -65 0
-65 66 0
65 -66 0
-4 -361 5 0
-5 4 0
-5 361 0
-4 -369 6 0
-6 4 0
-6 369 0
5 6 -4 67 0
-14 -361 7 0
-7 14 0
-7 361 0
-9 -369 8 0
-8 9 0
-8 369 0
7 8 4 -67 0
-67 -362 68 0
-68 67 0
-68 362 0
-67 -370 69 0
-69 67 0
-69 370 0
68 69 -67 72 0
-139 -362 70 0
-70 139 0
-70 362 0
-103 -370 71 0
-71 103 0
-71 370 0
70 71 67 -72 0
-72 -363 73 0
-73 72 0
-73 363 0
-72 -371 74 0
-74 72 0
-74 371 0
73 74 -72 77 0
-144 -363 75 0
-75 144 0
-75 363 0
-108 -371 76 0
-76 108 0
-76 371 0
75 76 72 -77 0
-77 -364 78 0
-78 77 0
-78 364 0
-77 -372 79 0
-79 77 0
-79 372 0
78 79 -77 82 0
-149 -364 80 0
-80 149 0
-80 364 0
-113 -372 81 0
-81 113 0
-81 372 0
80 81 77 -82 0
-82 -365 83 0
-83 82 0
-83 365 0
-82 -373 84 0
-84 82 0
-84 373 0
83 84 -82 87 0
-154 -365 85 0
-85 154 0
-85 365 0
-118 -373 86 0
-86 118 0
-86 373 0
85 86 82 -87 0
-87 -366 88 0
-88 87 0
-88 366 0
-87 -374 89 0
-89 87 0
-89 374 0
88 89 -87 92 0
-159 -366 90 0
-90 159 0
-90 366 0
-123 -374 91 0
-91 123 0
-91 374 0
90 91 87 -92 0
-92 -367 93 0
-93 92 0
-93 367 0
-92 -375 94 0
-94 92 0
-94 375 0
93 94 -92 97 0
-164 -367 95 0
-95 164 0
-95 367 0
-128 -375 96 0
-96 128 0
-96 375 0
95 96 92 -97 0
-97 -368 98 0
-98 97 0
-98 368 0
-97 -376 99 0
-99 97 0
-99 376 0
98 99 -97 102 0
-169 -368 100 0
-100 169 0
-100 368 0
-133 -376 101 0
-101 133 0
-101 376 0
100 101 97 -102 0
-9 -361 10 0
-10 9 0
-10 361 0
-9 -369 11 0
-11 9 0
-11 369 0
10 11 -9 103 0
-4 -361 12 0
-12 4 0
-12 361 0
-14 -369 13 0
-13 14 0
-13 369 0
12 13 9 -103 0
-103 -362 104 0
-104 103 0
-104 362 0
-103 -370 105 0
-105 103 0
-105 370 0
104 105 -103 108 0
-67 -362 106 0
-106 67 0
-106 362 0
-139 -370 107 0
-107 139 0
-107 370 0
106 107 103 -108 0
-108 -363 109 0
-109 108 0
-109 363 0
-108 -371 110 0
-110 108 0
-110 371 0
109 110 -108 113 0
-72 -363 111 0
-111 72 0
-111 363 0
-144 -371 112 0
-112 144 0
-112 371 0
111 112 108 -113 0
-113 -364 114 0
-114 113 0
-114 364 0
-113 -372 115 0
-115 113 0
-115 372 0
114 115 -113 118 0
-77 -364 116 0
-116 77 0
-116 364 0
-149 -372 117 0
-117 149 0
-117 372 0
116 117 113 -118 0
-118 -365 119 0
-119 118 0
-119 365 0
-118 -373 120 0
-120 118 0
-120 373 0
119 120 -118 123 0
-82 -365 121 0
-121 82 0
-121 365 0
-154 -373 122 0
-122 154 0
-122 373 0
121 122 118 -123 0
-123 -366 124 0
-124 123 0
-124 366 0
-123 -374 125 0
-125 123 0
-125 374 0
124 125 -123 128 0
-87 -366 126 0
-126 87 0
-126 366 0
-159 -374 127 0
-127 159 0
-127 374 0
126 127 123 -128 0
-128 -367 129 0
-129 128 0
-129 367 0
-128 -375 130 0
-130 128 0
-130 375 0
129 130 -128 133 0
-92 -367 131 0
-131 92 0
-131 367 0
-164 -375 132 0
-132 164 0
-132 375 0
131 132 128 -133 0
-133 -368 134 0
-134 133 0
-134 368 0
-133 -376 135 0
-135 133 0
-135 376 0
134 135 -133 138 0
-97 -368 136 0
-136 97 0
-136 368 0
-169 -376 137 0
-137 169 0
-137 376 0
136 137 133 -138 0
-14 -361 15 0
-15 14 0
-15 361 0
-14 -369 16 0
-16 14 0
-16 369 0
15 16 -14 139 0
-9 -361 17 0
-17 9 0
-17 361 0
-4 -369 18 0
-18 4 0
-18 369 0
17 18 14 -139 0
-139 -362 140 0
-140 139 0
-140 362 0
-139 -370 141 0
-141 139 0
-141 370 0
140 141 -139 144 0
-103 -362 142 0
-142 103 0
-142 362 0
-67 -370 143 0
-143 67 0
-143 370 0
142 143 139 -144 0
-144 -363 145 0
-145 144 0
-145 363 0
-144 -371 146 0
-146 144 0
-146 371 0
145 146 -144 149 0
-108 -363 147 0
-147 108 0
-147 363 0
-72 -371 148 0
-148 72 0
-148 371 0
147 148 144 -149 0
-149 -364 150 0
-150 149 0
-150 364 0
-149 -372 151 0
-151 149 0
-151 372 0
150 151 -149 154 0
-113 -364 152 0
-152 113 0
-152 364 0
-77 -372 153 0
-153 77 0
-153 372 0
152 153 149 -154 0
-154 -365 155 0
-155 154 0
-155 365 0
-154 -373 156 0
-156 154 0
-156 373 0
155 156 -154 159 0
-118 -365 157 0
-157 118 0
-157 365 0
-82 -373 158 0
-158 82 0
-158 373 0
157 158 154 -159 0
-159 -366 160 0
-160 159 0
-160 366 0
-159 -374 161 0
-161 159 0
-161 374 0
160 161 -159 164 0
-123 -366 162 0
-162 123 0
-162 366 0
-87 -374 163 0
-163 87 0
-163 374 0
162 163 159 -164 0
-164 -367 165 0
-165 164 0
-165 367 0
-164 -375 166 0
-166 164 0
-166 375 0
165 166 -164 169 0
-128 -367 167 0
-167 128 0
-167 367 0
-92 -375 168 0
-168 92 0
-168 375 0
167 168 164 -169 0
-169 -368 170 0
-170 169 0
-170 368 0
-169 -376 171 0
-171 169 0
-171 376 0
170 171 -169 174 0
-133 -368 172 0
-172 133 0
-172 368 0
-97 -376 173 0
-173 97 0
-173 376 0
172 173 169 -174 0
-19 175 0
-4 -385 20 0
-20 4 0
-20 385 0
20 19 -175 0
-175 177 0
-67 -386 176 0
-176 67 0
-176 386 0
176 175 -177 0
-177 179 0
-72 -387 178 0
-178 72 0
-178 387 0
178 177 -179 0
-179 181 0
-77 -388 180 0
-180 77 0
-180 388 0
180 179 -181 0
-181 183 0
-82 -389 182 0
-182 82 0
-182 389 0
182 181 -183 0
-183 185 0
-87 -390 184 0
-184 87 0
-184 390 0
184 183 -185 0
-185 187 0
-92 -391 186 0
-186 92 0
-186 391 0
186 185 -187 0
-187 189 0
-97 -392 188 0
-188 97 0
-188 392 0
188 187 -189 0
-21 190 0
-9 -385 22 0
-22 9 0
-22 385 0
22 21 -190 0
-190 192 0
-103 -386 191 0
-191 103 0
-191 386 0
191 190 -192 0
-192 194 0
-108 -387 193 0
-193 108 0
-193 387 0
193 192 -194 0
-194 196 0
-113 -388 195 0
-195 113 0
-195 388 0
195 194 -196 0
-196 198 0
-118 -389 197 0
-197 118 0
-197 389 0
197 196 -198 0
-198 200 0
-123 -390 199 0
-199 123 0
-199 390 0
199 198 -200 0
-200 202 0
-128 -391 201 0
-201 128 0
-201 391 0
201 200 -202 0
-202 204 0
-133 -392 203 0
-203 133 0
-203 392 0
203 202 -204 0
-23 205 0
-14 -385 24 0
-24 14 0
-24 385 0
24 23 -205 0
-205 207 0
-139 -386 206 0
-206 139 0
-206 386 0
206 205 -207 0
-207 209 0
-144 -387 208 0
-208 144 0
-208 387 0
208 207 -209 0
-209 211 0
-149 -388 210 0
-210 149 0
-210 388 0
210 209 -211 0
-211 213 0
-154 -389 212 0
-212 154 0
-212 389 0
212 211 -213 0
-213 215 0
-159 -390 214 0
-214 159 0
-214 390 0
214 213 -215 0
-215 217 0
-164 -391 216 0
-216 164 0
-216 391 0
216 215 -217 0
-217 219 0
-169 -392 218 0
-218 169 0
-218 392 0
218 217 -219 0
-25 220 0
25 -220 0
-220 221 0
220 -221 0
-221 222 0
221 -222 0
-222 223 0
222 -223 0
-223 224 0
223 -224 0
-224 225 0
224 -225 0
-225 226 0
225 -226 0
-226 227 0
226 -227 0
-26 228 0
26 -228 0
-228 229 0
228 -229 0
-229 230 0
229 -230 0
-230 231 0
230 -231 0
-231 232 0
231 -232 0
-232 233 0
232 -233 0
-233 234 0
233 -234 0
-234 235 0
234 -235 0
-27 236 0
27 -236 0
-236 237 0
236 -237 0
-237 238 0
237 -238 0
-238 239 0
238 -239 0
-239 240 0
239 -240 0
-240 241 0
240 -241 0
-241 242 0
241 -242 0
-242 243 0
242 -243 0
-28 244 0
-4 -19 -377 29 0
-29 4 0
-29 19 0
-29 377 0
29 28 -244 0
-244 246 0
-67 -175 -378 245 0
-245 67 0
-245 175 0
-245 378 0
245 244 -246 0
-246 248 0
-72 -177 -379 247 0
-247 72 0
-247 177 0
-247 379 0
247 246 -248 0
-248 250 0
-77 -179 -380 249 0
-249 77 0
-249 179 0
-249 380 0
249 248 -250 0
-250 252 0
-82 -181 -381 251 0
-251 82 0
-251 181 0
-251 381 0
251 250 -252 0
-252 254 0
-87 -183 -382 253 0
-253 87 0
-253 183 0
-253 382 0
253 252 -254 0
-254 256 0
-92 -185 -383 255 0
-255 92 0
-255 185 0
-255 383 0
255 254 -256 0
-256 258 0
-97 -187 -384 257 0
-257 97 0
-257 187 0
-257 384 0
257 256 -258 0
-30 259 0
-9 -21 -377 31 0
-31 9 0
-31 21 0
-31 377 0
31 30 -259 0
-259 261 0
-103 -190 -378 260 0
-260 103 0
-260 190 0
-260 378 0
260 259 -261 0
-261 263 0
-108 -192 -379 262 0
-262 108 0
-262 192 0
-262 379 0
262 261 -263 0
-263 265 0
-113 -194 -380 264 0
-264 113 0
-264 194 0
-264 380 0
264 263 -265 0
-265 267 0
-118 -196 -381 266 0
-266 118 0
-266 196 0
-266 381 0
266 265 -267 0
-267 269 0
-123 -198 -382 268 0
-268 123 0
-268 198 0
-268 382 0
268 267 -269 0
-269 271 0
-128 -200 -383 270 0
-270 128 0
-270 200 0
-270 383 0
270 269 -271 0
-271 273 0
-133 -202 -384 272 0
-272 133 0
-272 202 0
-272 384 0
272 271 -273 0
-32 274 0
-14 -23 -377 33 0
-33 14 0
-33 23 0
-33 377 0
33 32 -274 0
-274 276 0
-139 -205 -378 275 0
-275 139 0
-275 205 0
-275 378 0
275 274 -276 0
-276 278 0
-144 -207 -379 277 0
-277 144 0
-277 207 0
-277 379 0
277 276 -278 0
-278 280 0
-149 -209 -380 279 0
-279 149 0
-279 209 0
-279 380 0
279 278 -280 0
-280 282 0
-154 -211 -381 281 0
-281 154 0
-281 211 0
-281 381 0
281 280 -282 0
-282 284 0
-159 -213 -382 283 0
-283 159 0
-283 213 0
-283 382 0
283 282 -284 0
-284 286 0
-164 -215 -383 285 0
-285 164 0
-285 215 0
-285 383 0
285 284 -286 0
-286 288 0
-169 -217 -384 287 0
-287 169 0
-287 217 0
-287 384 0
287 286 -288 0
-34 289 0
34 -289 0
-289 290 0
289 -290 0
-290 291 0
290 -291 0
-291 292 0
291 -292 0
-292 293 0
292 -293 0
-293 294 0
293 -294 0
-294 295 0
294 -295 0
-295 296 0
295 -296 0
-35 297 0
35 -297 0
-297 298 0
297 -298 0
-298 299 0
298 -299 0
-299 300 0
299 -300 0
-300 301 0
300 -301 0
-301 302 0
301 -302 0
-302 303 0
302 -303 0
-303 304 0
303 -304 0
-36 305 0
36 -305 0
-305 306 0
305 -306 0
-306 307 0
306 -307 0
-307 308 0
307 -308 0
-308 309 0
308 -309 0
-309 310 0
309 -310 0
-310 311 0
310 -311 0
-311 312 0
311 -312 0
-37 313 0
37 -313 0
-313 314 0
313 -314 0
-314 315 0
314 -315 0
-315 316 0
315 -316 0
-316 317 0
316 -317 0
-317 318 0
317 -318 0
-318 319 0
318 -319 0
-319 320 0
319 -320 0
-38 321 0
38 -321 0
-321 322 0
321 -322 0
-322 323 0
322 -323 0
-323 324 0
323 -324 0
-324 325 0
324 -325 0
-325 326 0
325 -326 0
-326 327 0
326 -327 0
-327 328 0
327 -328 0
-39 329 0
39 -329 0
-329 330 0
329 -330 0
-330 331 0
330 -331 0
-331 332 0
331 -332 0
-332 333 0
332 -333 0
-333 334 0
333 -334 0
-334 335 0
334 -335 0
-335 336 0
335 -336 0
-40 337 0
40 -337 0
-337 338 0
337 -338 0
-338 339 0
338 -339 0
-339 340 0
339 -340 0
-340 341 0
340 -341 0
-341 342 0
341 -342 0
-342 343 0
342 -343 0
-343 344 0
343 -344 0
-41 345 0
41 -345 0
-345 346 0
345 -346 0
-346 347 0
346 -347 0
-347 348 0
347 -348 0
-348 349 0
348 -349 0
-349 350 0
349 -350 0
-350 351 0
350 -351 0
-351 352 0
351 -352 0
-42 353 0
42 -353 0
-353 354 0
353 -354 0
-354 355 0
354 -355 0
-355 356 0
355 -356 0
-356 357 0
356 -357 0
-357 358 0
357 -358 0
-358 359 0
358 -359 0
-359 360 0
359 -360 0
-361 -369 0
-362 -370 0
-363 -371 0
-364 -372 0
-365 -373 0
-366 -374 0
-367 -375 0
-368 -376 0
